;symbolic execution tree
(push)
(assert (le x0 java.lang.Object))
(check-sat)
(push)
(assert (le x1 java.lang.Object))
(check-sat)
(push)
(assert (le x2 java.lang.Object))
(check-sat)
(push)
(assert (le x3 java.lang.Object))
(check-sat)
(push)
(assert (le x4 java.lang.Object))
(check-sat)
(push)
(assert (le x5 java.lang.Object))
(check-sat)
(push)
(assert (le x6 java.lang.Object))
(check-sat)
(push)
(assert (le x7 java.lang.Object))
(check-sat)
(push)
(assert (le x8 java.lang.Object))
(check-sat)
(push)
(assert (le x9 java.lang.Object))
(check-sat)
(push)
(assert (le x10 java.lang.Object))
(check-sat)
(push)
(assert (le x11 java.lang.Object))
(check-sat)
(push)
(assert (le x12 java.lang.Object))
(check-sat)
(push)
(assert (le x13 java.lang.Object))
(check-sat)
(push)
(assert (le x14 java.lang.Object))
(check-sat)
(push)
(assert (le x15 java.lang.Object))
(check-sat)
(push)
(assert (= x3 java.lang.reflect.Field))
(check-sat)
(push)
(assert (= x0 java.lang.StringBuffer))
(check-sat)
(push)
(assert (= x9 java.lang.String))
(check-sat)
(push)
(assert (= x7 java.lang.String))
(check-sat)
(pop)
(push)
(assert (not (= x7 java.lang.String)))
(check-sat)
(push)
(assert (= x15 java.lang.StringBuffer))
(check-sat)
(push)
(assert (= x11 java.lang.String))
(check-sat)
(push)
(assert (= x13 java.lang.Integer))
(check-sat)
(push)
(assert (= x2 java.lang.String))
(check-sat)
(pop)
(push)
(assert (not (= x2 java.lang.String)))
(check-sat)
(push)
(assert (= x11 java.lang.String))
(check-sat)
(pop)
(push)
(assert (not (= x11 java.lang.String)))
(check-sat)
(pop)
(pop)
(pop)
(push)
(assert (not (= x13 java.lang.Integer)))
(check-sat)
(pop)
(pop)
(push)
(assert (not (= x11 java.lang.String)))
(check-sat)
(push)
(assert (le x14 com.lowagie.text.pdf.PdfObject))
(check-sat)
(pop)
(push)
(assert (not (le x14 com.lowagie.text.pdf.PdfObject)))
(check-sat)
(push)
(assert (= x5 java.lang.String))
(check-sat)
(pop)
(push)
(assert (not (= x5 java.lang.String)))
(check-sat)
(push)
(assert (= x6 java.lang.StringBuffer))
(check-sat)
(pop)
(push)
(assert (not (= x6 java.lang.StringBuffer)))
(check-sat)
(pop)
(pop)
(push)
(assert (= x6 java.lang.String))
(check-sat)
(pop)
(push)
(assert (not (= x6 java.lang.String)))
(check-sat)
(pop)
(push)
(assert (= x7 java.lang.String))
(check-sat)
(pop)
(push)
(assert (not (= x7 java.lang.String)))
(check-sat)
(pop)
(push)
(assert (= x1 java.lang.String))
(check-sat)
(pop)
(push)
(assert (not (= x1 java.lang.String)))
(check-sat)
(push)
(assert (= x9 java.lang.String))
(check-sat)
(pop)
(push)
(assert (not (= x9 java.lang.String)))
(check-sat)
(pop)
(push)
(assert (le x10 com.lowagie.text.pdf.PdfName))
(check-sat)
(pop)
(push)
(assert (not (le x10 com.lowagie.text.pdf.PdfName)))
(check-sat)
(pop)
(push)
(assert (= x11 java.lang.String))
(check-sat)
(pop)
(push)
(assert (not (= x11 java.lang.String)))
(check-sat)
(pop)
(push)
(assert (= x7 java.lang.String))
(check-sat)
(pop)
(push)
(assert (not (= x7 java.lang.String)))
(check-sat)
(pop)
(pop)
(push)
(assert (= x9 java.lang.String))
(check-sat)
(push)
(assert (= x9 java.lang.String))
(check-sat)
(push)
(assert (= x9 java.lang.String))
(check-sat)
(push)
(assert (le x13 com.lowagie.text.pdf.ByteBuffer))
(check-sat)
(push)
(assert (= x3 java.lang.reflect.Field))
(check-sat)
(pop)
(push)
(assert (not (= x3 java.lang.reflect.Field)))
(check-sat)
(pop)
(pop)
(push)
(assert (not (le x13 com.lowagie.text.pdf.ByteBuffer)))
(check-sat)
(pop)
(push)
(assert (= x15 java.lang.StringBuffer))
(check-sat)
(pop)
(push)
(assert (not (= x15 java.lang.StringBuffer)))
(check-sat)
(pop)
(pop)
(push)
(assert (not (= x9 java.lang.String)))
(check-sat)
(pop)
(pop)
(push)
(assert (not (= x9 java.lang.String)))
(check-sat)
(pop)
(push)
(assert (le x13 com.lowagie.text.pdf.PdfObject))
(check-sat)
(pop)
(push)
(assert (not (le x13 com.lowagie.text.pdf.PdfObject)))
(check-sat)
(pop)
(pop)
(push)
(assert (not (= x9 java.lang.String)))
(check-sat)
(pop)
(push)
(assert (= x15 java.lang.StringBuffer))
(check-sat)
(push)
(assert (= x3 java.lang.reflect.Field))
(check-sat)
(push)
(assert (le x10 com.lowagie.text.pdf.PdfObject))
(check-sat)
(push)
(assert (= x1 java.lang.String))
(check-sat)
(pop)
(push)
(assert (not (= x1 java.lang.String)))
(check-sat)
(pop)
(pop)
(push)
(assert (not (le x10 com.lowagie.text.pdf.PdfObject)))
(check-sat)
(pop)
(push)
(assert (= x1 java.lang.StringBuffer))
(check-sat)
(pop)
(push)
(assert (not (= x1 java.lang.StringBuffer)))
(check-sat)
(pop)
(pop)
(push)
(assert (not (= x3 java.lang.reflect.Field)))
(check-sat)
(pop)
(push)
(assert (= x8 java.lang.StringBuffer))
(check-sat)
(pop)
(push)
(assert (not (= x8 java.lang.StringBuffer)))
(check-sat)
(pop)
(pop)
(push)
(assert (not (= x15 java.lang.StringBuffer)))
(check-sat)
(pop)
(push)
(assert (= x8 java.lang.Integer))
(check-sat)
(push)
(assert (= x2 java.lang.StringBuffer))
(check-sat)
(pop)
(push)
(assert (not (= x2 java.lang.StringBuffer)))
(check-sat)
(pop)
(pop)
(push)
(assert (not (= x8 java.lang.Integer)))
(check-sat)
(push)
(assert (= x8 java.lang.Integer))
(check-sat)
(pop)
(push)
(assert (not (= x8 java.lang.Integer)))
(check-sat)
(pop)
(push)
(assert (= x8 java.lang.Integer))
(check-sat)
(pop)
(push)
(assert (not (= x8 java.lang.Integer)))
(check-sat)
(push)
(assert (= x5 java.lang.StringBuffer))
(check-sat)
(pop)
(push)
(assert (not (= x5 java.lang.StringBuffer)))
(check-sat)
(pop)
(pop)
(push)
(assert (= x12 java.lang.StringBuffer))
(check-sat)
(push)
(assert (= x0 java.lang.StringBuffer))
(check-sat)
(pop)
(push)
(assert (not (= x0 java.lang.StringBuffer)))
(check-sat)
(pop)
(pop)
(push)
(assert (not (= x12 java.lang.StringBuffer)))
(check-sat)
(push)
(assert (= x12 java.lang.StringBuffer))
(check-sat)
(pop)
(push)
(assert (not (= x12 java.lang.StringBuffer)))
(check-sat)
(push)
(assert (le x2 com.lowagie.text.pdf.PdfWriter_currencysign_PdfBody_currencysign_PdfCrossReference))
(check-sat)
(push)
(assert (= x6 java.lang.StringBuffer))
(check-sat)
(pop)
(push)
(assert (not (= x6 java.lang.StringBuffer)))
(check-sat)
(pop)
(push)
(assert (= x10 java.lang.StringBuffer))
(check-sat)
(pop)
(push)
(assert (not (= x10 java.lang.StringBuffer)))
(check-sat)
(pop)
(push)
(assert (= x8 java.lang.Integer))
(check-sat)
(pop)
(push)
(assert (not (= x8 java.lang.Integer)))
(check-sat)
(pop)
(pop)
(push)
(assert (not (le x2 com.lowagie.text.pdf.PdfWriter_currencysign_PdfBody_currencysign_PdfCrossReference)))
(check-sat)
(push)
(assert (le x2 java.lang.Object))
(check-sat)
(push)
(assert (not (le x2 com.lowagie.text.pdf.PdfObject)))
(check-sat)
(pop)
(push)
(assert (le x2 com.lowagie.text.pdf.PdfObject))
(check-sat)
(pop)
(pop)
(push)
(assert (not (le x2 java.lang.Object)))
(check-sat)
(pop)
(push)
(assert (= x7 java.lang.String))
(check-sat)
(pop)
(push)
(assert (not (= x7 java.lang.String)))
(check-sat)
(pop)
(pop)
(push)
(assert (= x11 java.lang.String))
(check-sat)
(pop)
(push)
(assert (not (= x11 java.lang.String)))
(check-sat)
(push)
(assert (= x15 java.lang.StringBuffer))
(check-sat)
(pop)
(push)
(assert (not (= x15 java.lang.StringBuffer)))
(check-sat)
(pop)
(pop)
(pop)
(push)
(assert (= x15 java.lang.StringBuffer))
(check-sat)
(pop)
(push)
(assert (not (= x15 java.lang.StringBuffer)))
(check-sat)
(pop)
(pop)
(push)
(assert (= x7 java.lang.String))
(check-sat)
(pop)
(push)
(assert (not (= x7 java.lang.String)))
(check-sat)
(pop)
(push)
(assert (= x15 java.lang.StringBuffer))
(check-sat)
(push)
(assert (= x8 java.lang.Integer))
(check-sat)
(pop)
(push)
(assert (not (= x8 java.lang.Integer)))
(check-sat)
(pop)
(push)
(assert (le x10 com.lowagie.text.pdf.PdfObject))
(check-sat)
(pop)
(push)
(assert (not (le x10 com.lowagie.text.pdf.PdfObject)))
(check-sat)
(pop)
(pop)
(push)
(assert (not (= x15 java.lang.StringBuffer)))
(check-sat)
(pop)
(push)
(assert (= x9 java.lang.String))
(check-sat)
(pop)
(push)
(assert (not (= x9 java.lang.String)))
(check-sat)
(pop)
(push)
(assert (le x6 com.lowagie.text.pdf.ByteBuffer))
(check-sat)
(pop)
(push)
(assert (not (le x6 com.lowagie.text.pdf.ByteBuffer)))
(check-sat)
(pop)
(push)
(assert (= x0 java.lang.StringBuffer))
(check-sat)
(push)
(assert (le x13 com.lowagie.text.pdf.PdfRectangle))
(check-sat)
(pop)
(push)
(assert (not (le x13 com.lowagie.text.pdf.PdfRectangle)))
(check-sat)
(push)
(assert (le x13 com.lowagie.text.pdf.PdfArray))
(check-sat)
(push)
(assert (= x8 java.lang.Integer))
(check-sat)
(pop)
(push)
(assert (not (= x8 java.lang.Integer)))
(check-sat)
(pop)
(pop)
(pop)
(pop)
(push)
(assert (not (= x0 java.lang.StringBuffer)))
(check-sat)
(pop)
(pop)
(push)
(assert (= x11 java.lang.String))
(check-sat)
(pop)
(push)
(assert (not (= x11 java.lang.String)))
(check-sat)
(push)
(assert (= x5 java.lang.String))
(check-sat)
(pop)
(push)
(assert (not (= x5 java.lang.String)))
(check-sat)
(push)
(assert (= x6 java.lang.StringBuffer))
(check-sat)
(push)
(assert (= x1 java.lang.StringBuffer))
(check-sat)
(pop)
(push)
(assert (not (= x1 java.lang.StringBuffer)))
(check-sat)
(pop)
(pop)
(push)
(assert (not (= x6 java.lang.StringBuffer)))
(check-sat)
(push)
(assert (= x1 java.lang.String))
(check-sat)
(pop)
(push)
(assert (not (= x1 java.lang.String)))
(check-sat)
(pop)
(push)
(assert (= x9 java.lang.String))
(check-sat)
(push)
(assert (= x0 java.lang.StringBuffer))
(check-sat)
(pop)
(push)
(assert (not (= x0 java.lang.StringBuffer)))
(check-sat)
(pop)
(pop)
(push)
(assert (not (= x9 java.lang.String)))
(check-sat)
(pop)
(pop)
(push)
(assert (le x8 com.lowagie.text.pdf.PdfObject))
(check-sat)
(push)
(assert (= x1 java.lang.StringBuffer))
(check-sat)
(pop)
(push)
(assert (not (= x1 java.lang.StringBuffer)))
(check-sat)
(pop)
(pop)
(push)
(assert (not (le x8 com.lowagie.text.pdf.PdfObject)))
(check-sat)
(push)
(assert (= x9 java.lang.String))
(check-sat)
(push)
(assert (= x2 java.lang.Integer))
(check-sat)
(pop)
(push)
(assert (not (= x2 java.lang.Integer)))
(check-sat)
(pop)
(pop)
(push)
(assert (not (= x9 java.lang.String)))
(check-sat)
(pop)
(push)
(assert (= x5 java.lang.String))
(check-sat)
(pop)
(push)
(assert (not (= x5 java.lang.String)))
(check-sat)
(pop)
(push)
(assert (not (le x10 org.dom4j.tree.ContentListFacade)))
(check-sat)
(push)
(assert (not (le x10 java.util.Vector)))
(check-sat)
(push)
(assert (not (le x10 java.util.ArrayList)))
(check-sat)
(push)
(assert (le x10 java.util.AbstractList))
(check-sat)
(pop)
(pop)
(pop)
(pop)
(push)
(assert (le x10 java.util.IdentityHashMap))
(check-sat)
(pop)
(push)
(assert (le x10 java.util.Hashtable))
(check-sat)
(pop)
(push)
(assert (le x10 java.util.Vector))
(check-sat)
(pop)
(push)
(assert (le x10 java.util.TreeMap))
(check-sat)
(pop)
(push)
(assert (le x10 com.lowagie.text.pdf.IntHashtable))
(check-sat)
(push)
(assert (= x0 java.lang.StringBuffer))
(check-sat)
(pop)
(push)
(assert (not (= x0 java.lang.StringBuffer)))
(check-sat)
(pop)
(push)
(assert (le x8 com.lowagie.text.pdf.PdfObject))
(check-sat)
(pop)
(push)
(assert (not (le x8 com.lowagie.text.pdf.PdfObject)))
(check-sat)
(pop)
(pop)
(push)
(assert (le x10 java.util.Calendar))
(check-sat)
(push)
(assert (= x13 java.lang.StringBuffer))
(check-sat)
(pop)
(push)
(assert (not (= x13 java.lang.StringBuffer)))
(check-sat)
(pop)
(pop)
(push)
(assert (le x10 java.security.Provider))
(check-sat)
(push)
(assert (= x1 java.lang.Integer))
(check-sat)
(pop)
(push)
(assert (not (= x1 java.lang.Integer)))
(check-sat)
(pop)
(pop)
(push)
(assert (le x10 java.util.LinkedHashMap))
(check-sat)
(pop)
(push)
(assert (le x10 org.dom4j.tree.ContentListFacade))
(check-sat)
(pop)
(push)
(assert (le x10 org.dom4j.tree.ConcurrentReaderHashMap))
(check-sat)
(pop)
(push)
(assert (le x10 java.util.LinkedList))
(check-sat)
(pop)
(push)
(assert (not (le x10 org.dom4j.tree.BackedList)))
(check-sat)
(push)
(assert (le x10 java.util.ArrayList))
(check-sat)
(pop)
(pop)
(push)
(assert (le x10 java.util.WeakHashMap))
(check-sat)
(pop)
(push)
(assert (le x10 java.util.TreeSet))
(check-sat)
(pop)
(push)
(assert (le x10 java.lang.ref.Reference))
(check-sat)
(pop)
(push)
(assert (le x10 java.io.ObjectOutputStream))
(check-sat)
(push)
(assert (le x8 com.lowagie.text.pdf.PdfObject))
(check-sat)
(pop)
(push)
(assert (not (le x8 com.lowagie.text.pdf.PdfObject)))
(check-sat)
(push)
(assert (= x0 java.lang.StringBuffer))
(check-sat)
(pop)
(push)
(assert (not (= x0 java.lang.StringBuffer)))
(check-sat)
(pop)
(pop)
(pop)
(push)
(assert (le x10 org.dom4j.tree.NamespaceStack))
(check-sat)
(push)
(assert (le x10 java.util.ArrayList))
(check-sat)
(pop)
(push)
(assert (not (le x10 java.util.ArrayList)))
(check-sat)
(pop)
(pop)
(push)
(assert (not (le x10 java.util.LinkedHashMap)))
(check-sat)
(push)
(assert (le x10 java.util.HashMap))
(check-sat)
(pop)
(pop)
(push)
(assert (not (le x10 org.dom4j.tree.ConcurrentReaderHashMap)))
(check-sat)
(push)
(assert (not (le x10 java.util.HashMap)))
(check-sat)
(push)
(assert (not (le x10 java.util.TreeMap)))
(check-sat)
(push)
(assert (le x10 java.util.AbstractMap))
(check-sat)
(push)
(assert (not (le x10 java.util.WeakHashMap)))
(check-sat)
(push)
(assert (not (le x10 java.util.IdentityHashMap)))
(check-sat)
(pop)
(pop)
(pop)
(pop)
(pop)
(pop)
(push)
(assert (not (le x10 java.util.AbstractList)))
(check-sat)
(push)
(assert (le x10 java.util.AbstractCollection))
(check-sat)
(push)
(assert (= x9 java.lang.String))
(check-sat)
(pop)
(push)
(assert (not (= x9 java.lang.String)))
(check-sat)
(pop)
(pop)
(pop)
(push)
(assert (le x10 com.lowagie.text.Cell))
(check-sat)
(pop)
(push)
(assert (le x10 java.util.HashSet))
(check-sat)
(pop)
(push)
(assert (le x10 org.dom4j.tree.BackedList))
(check-sat)
(pop)
(push)
(assert (le x10 java.awt.RenderingHints))
(check-sat)
(pop)
(push)
(assert (le x10 org.dom4j.io.ElementStack))
(check-sat)
(pop)
(push)
(assert (= x15 java.lang.StringBuffer))
(check-sat)
(pop)
(push)
(assert (not (= x15 java.lang.StringBuffer)))
(check-sat)
(pop)
(pop)
(pop)
(pop)
(push)
(assert (= x2 java.lang.StringBuffer))
(check-sat)
(pop)
(push)
(assert (not (= x2 java.lang.StringBuffer)))
(check-sat)
(pop)
(push)
(assert (= x7 java.lang.String))
(check-sat)
(pop)
(push)
(assert (not (= x7 java.lang.String)))
(check-sat)
(pop)
(pop)
(push)
(assert (= x8 java.lang.String))
(check-sat)
(push)
(assert (= x3 java.lang.reflect.Field))
(check-sat)
(push)
(assert (= x1 java.lang.String))
(check-sat)
(pop)
(push)
(assert (not (= x1 java.lang.String)))
(check-sat)
(pop)
(pop)
(push)
(assert (not (= x3 java.lang.reflect.Field)))
(check-sat)
(pop)
(push)
(assert (= x11 java.lang.String))
(check-sat)
(pop)
(push)
(assert (not (= x11 java.lang.String)))
(check-sat)
(pop)
(push)
(assert (= x10 java.lang.StringBuffer))
(check-sat)
(push)
(assert (= x5 java.lang.StringBuffer))
(check-sat)
(pop)
(push)
(assert (not (= x5 java.lang.StringBuffer)))
(check-sat)
(pop)
(pop)
(push)
(assert (not (= x10 java.lang.StringBuffer)))
(check-sat)
(push)
(assert (= x13 java.lang.StringBuffer))
(check-sat)
(push)
(assert (= x4 java.lang.StringBuffer))
(check-sat)
(pop)
(push)
(assert (not (= x4 java.lang.StringBuffer)))
(check-sat)
(pop)
(pop)
(push)
(assert (not (= x13 java.lang.StringBuffer)))
(check-sat)
(pop)
(push)
(assert (= x9 java.lang.String))
(check-sat)
(push)
(assert (le x1 com.lowagie.text.pdf.PdfObject))
(check-sat)
(push)
(assert (= x9 java.lang.String))
(check-sat)
(pop)
(push)
(assert (not (= x9 java.lang.String)))
(check-sat)
(pop)
(push)
(assert (= x8 java.lang.String))
(check-sat)
(pop)
(push)
(assert (not (= x8 java.lang.String)))
(check-sat)
(pop)
(pop)
(push)
(assert (not (le x1 com.lowagie.text.pdf.PdfObject)))
(check-sat)
(pop)
(pop)
(push)
(assert (not (= x9 java.lang.String)))
(check-sat)
(pop)
(push)
(assert (= x13 java.lang.StringBuffer))
(check-sat)
(push)
(assert (= x9 java.lang.String))
(check-sat)
(pop)
(push)
(assert (not (= x9 java.lang.String)))
(check-sat)
(pop)
(pop)
(push)
(assert (not (= x13 java.lang.StringBuffer)))
(check-sat)
(pop)
(pop)
(push)
(assert (= x15 java.lang.StringBuffer))
(check-sat)
(push)
(assert (= x15 java.lang.StringBuffer))
(check-sat)
(pop)
(push)
(assert (not (= x15 java.lang.StringBuffer)))
(check-sat)
(pop)
(push)
(assert (= x9 java.lang.String))
(check-sat)
(pop)
(push)
(assert (not (= x9 java.lang.String)))
(check-sat)
(pop)
(push)
(assert (le x14 com.lowagie.text.pdf.PdfObject))
(check-sat)
(pop)
(push)
(assert (not (le x14 com.lowagie.text.pdf.PdfObject)))
(check-sat)
(push)
(assert (= x3 java.lang.reflect.Field))
(check-sat)
(pop)
(push)
(assert (not (= x3 java.lang.reflect.Field)))
(check-sat)
(pop)
(push)
(assert (= x3 java.lang.reflect.Field))
(check-sat)
(pop)
(push)
(assert (not (= x3 java.lang.reflect.Field)))
(check-sat)
(pop)
(pop)
(pop)
(push)
(assert (not (= x15 java.lang.StringBuffer)))
(check-sat)
(pop)
(push)
(assert (= x0 java.lang.StringBuffer))
(check-sat)
(pop)
(push)
(assert (not (= x0 java.lang.StringBuffer)))
(check-sat)
(pop)
(push)
(assert (= x11 java.lang.String))
(check-sat)
(pop)
(push)
(assert (not (= x11 java.lang.String)))
(check-sat)
(push)
(assert (= x7 java.lang.String))
(check-sat)
(pop)
(push)
(assert (not (= x7 java.lang.String)))
(check-sat)
(push)
(assert (= x11 java.lang.String))
(check-sat)
(pop)
(push)
(assert (not (= x11 java.lang.String)))
(check-sat)
(pop)
(pop)
(push)
(assert (= x15 java.lang.StringBuffer))
(check-sat)
(pop)
(push)
(assert (not (= x15 java.lang.StringBuffer)))
(check-sat)
(pop)
(push)
(assert (le x4 com.lowagie.text.pdf.PdfName))
(check-sat)
(push)
(assert (= x8 java.lang.String))
(check-sat)
(push)
(assert (le x1 com.lowagie.text.pdf.ByteBuffer))
(check-sat)
(push)
(assert (= x4 java.util.regex.Matcher))
(check-sat)
(pop)
(push)
(assert (le x4 java.security.Provider))
(check-sat)
(push)
(assert (= x10 java.lang.Integer))
(check-sat)
(pop)
(push)
(assert (not (= x10 java.lang.Integer)))
(check-sat)
(pop)
(pop)
(push)
(assert (le x4 org.jaxen.expr.DefaultNameStep))
(check-sat)
(pop)
(push)
(assert (le x4 java.io.File))
(check-sat)
(pop)
(push)
(assert (= x4 java.lang.Class))
(check-sat)
(pop)
(push)
(assert (= x4 java.net.URI))
(check-sat)
(push)
(assert (= x6 java.lang.String))
(check-sat)
(push)
(assert (le x2 com.lowagie.text.pdf.ByteBuffer))
(check-sat)
(pop)
(push)
(assert (not (le x2 com.lowagie.text.pdf.ByteBuffer)))
(check-sat)
(pop)
(pop)
(push)
(assert (not (= x6 java.lang.String)))
(check-sat)
(pop)
(pop)
(push)
(assert (= x4 java.lang.StringBuilder))
(check-sat)
(pop)
(push)
(assert (le x4 jcmdline.dto.PdfFile))
(check-sat)
(pop)
(push)
(assert (le x4 org.jaxen.expr.DefaultXPathExpr))
(check-sat)
(pop)
(push)
(assert (le x4 org.jaxen.expr.DefaultPredicate))
(check-sat)
(pop)
(push)
(assert (le x4 java.math.BigInteger))
(check-sat)
(push)
(assert (= x12 java.lang.StringBuffer))
(check-sat)
(pop)
(push)
(assert (not (= x12 java.lang.StringBuffer)))
(check-sat)
(pop)
(pop)
(push)
(assert (le x4 java.awt.image.ColorModel))
(check-sat)
(pop)
(push)
(assert (le x4 org.bouncycastle.math.ec.SimpleBigDecimal))
(check-sat)
(pop)
(push)
(assert (not (= x4 java.lang.StringBuffer)))
(check-sat)
(push)
(assert (not (= x4 java.lang.StringBuilder)))
(check-sat)
(pop)
(pop)
(push)
(assert (le x4 org.jaxen.expr.DefaultAbsoluteLocationPath))
(check-sat)
(pop)
(push)
(assert (le x4 java.util.Hashtable))
(check-sat)
(pop)
(push)
(assert (le x4 org.pdfsam.console.business.dto.Transition))
(check-sat)
(pop)
(push)
(assert (le x4 java.awt.Color))
(check-sat)
(pop)
(push)
(assert (le x4 org.dom4j.Namespace))
(check-sat)
(pop)
(push)
(assert (le x4 com.lowagie.text.pdf.ByteBuffer))
(check-sat)
(pop)
(push)
(assert (= x4 java.util.regex.Pattern))
(check-sat)
(pop)
(push)
(assert (= x4 java.lang.Float))
(check-sat)
(pop)
(push)
(assert (le x4 java.awt.Font))
(check-sat)
(pop)
(push)
(assert (le x4 java.nio.ByteBuffer))
(check-sat)
(pop)
(push)
(assert (le x4 org.pdfsam.console.business.dto.WorkDoneDataModel))
(check-sat)
(pop)
(push)
(assert (= x4 java.lang.StringBuffer))
(check-sat)
(pop)
(push)
(assert (le x4 org.bouncycastle.jce.provider.JCEECPublicKey))
(check-sat)
(pop)
(push)
(assert (le x4 java.lang.Thread))
(check-sat)
(pop)
(push)
(assert (le x4 org.apache.commons.lang.time.StopWatch))
(check-sat)
(pop)
(push)
(assert (le x4 java.util.Date))
(check-sat)
(pop)
(push)
(assert (le x4 org.jaxen.expr.DefaultEqualsExpr))
(check-sat)
(pop)
(push)
(assert (le x4 com.lowagie.text.pdf.PdfString))
(check-sat)
(pop)
(push)
(assert (le x4 java.awt.RenderingHints))
(check-sat)
(pop)
(push)
(assert (le x4 org.apache.log4j.Priority))
(check-sat)
(pop)
(push)
(assert (le x4 com.lowagie.text.Rectangle))
(check-sat)
(push)
(assert (not (le x4 com.lowagie.text.RectangleReadOnly)))
(check-sat)
(pop)
(pop)
(push)
(assert (le x4 com.lowagie.text.pdf.PdfNull))
(check-sat)
(pop)
(push)
(assert (le x4 java.util.AbstractMap))
(check-sat)
(pop)
(push)
(assert (not (le x4 com.lowagie.text.pdf.PdfStream)))
(check-sat)
(push)
(assert (le x4 com.lowagie.text.pdf.PdfDictionary))
(check-sat)
(pop)
(pop)
(push)
(assert (le x4 org.pdfsam.console.business.dto.commands.SlideShowParsedCommand))
(check-sat)
(push)
(assert (le x4 com.lowagie.text.pdf.PdfObject))
(check-sat)
(pop)
(push)
(assert (not (le x4 com.lowagie.text.pdf.PdfObject)))
(check-sat)
(pop)
(pop)
(push)
(assert (le x4 com.lowagie.text.pdf.PdfArray))
(check-sat)
(push)
(assert (le x4 com.lowagie.text.pdf.PdfObject))
(check-sat)
(pop)
(push)
(assert (not (le x4 com.lowagie.text.pdf.PdfObject)))
(check-sat)
(pop)
(pop)
(push)
(assert (le x4 org.jaxen.BaseXPath))
(check-sat)
(pop)
(push)
(assert (le x4 java.util.SimpleTimeZone))
(check-sat)
(pop)
(push)
(assert (le x4 org.dom4j.tree.AbstractDocument))
(check-sat)
(pop)
(push)
(assert (le x4 java.lang.Package))
(check-sat)
(pop)
(push)
(assert (not (le x4 org.jaxen.expr.DefaultEqualsExpr)))
(check-sat)
(push)
(assert (= x11 java.lang.String))
(check-sat)
(pop)
(push)
(assert (not (= x11 java.lang.String)))
(check-sat)
(pop)
(pop)
(push)
(assert (= x4 java.net.URL))
(check-sat)
(pop)
(push)
(assert (le x4 org.pdfsam.console.business.dto.commands.EncryptParsedCommand))
(check-sat)
(pop)
(push)
(assert (le x4 com.lowagie.text.RectangleReadOnly))
(check-sat)
(pop)
(push)
(assert (le x4 org.jaxen.expr.DefaultPathExpr))
(check-sat)
(pop)
(push)
(assert (le x4 org.pdfsam.console.business.dto.PdfFile))
(check-sat)
(pop)
(push)
(assert (le x4 org.dom4j.tree.NamespaceStack))
(check-sat)
(pop)
(push)
(assert (le x4 java.security.MessageDigest))
(check-sat)
(pop)
(push)
(assert (le x4 org.dom4j.xpath.DefaultXPath))
(check-sat)
(pop)
(push)
(assert (= x4 java.lang.Character))
(check-sat)
(pop)
(push)
(assert (not (le x4 org.pdfsam.console.business.dto.commands.SplitParsedCommand)))
(check-sat)
(push)
(assert (not (le x4 org.pdfsam.console.business.dto.commands.SetViewerParsedCommand)))
(check-sat)
(push)
(assert (le x4 org.pdfsam.console.business.dto.commands.AbstractParsedCommand))
(check-sat)
(push)
(assert (not (le x4 org.pdfsam.console.business.dto.commands.MixParsedCommand)))
(check-sat)
(push)
(assert (not (le x4 org.pdfsam.console.business.dto.commands.EncryptParsedCommand)))
(check-sat)
(push)
(assert (not (le x4 org.pdfsam.console.business.dto.commands.SlideShowParsedCommand)))
(check-sat)
(push)
(assert (not (le x4 org.pdfsam.console.business.dto.commands.ConcatParsedCommand)))
(check-sat)
(pop)
(pop)
(pop)
(pop)
(pop)
(pop)
(pop)
(push)
(assert (le x4 com.lowagie.text.ExceptionConverter))
(check-sat)
(push)
(assert (= x3 java.lang.reflect.Field))
(check-sat)
(pop)
(push)
(assert (not (= x3 java.lang.reflect.Field)))
(check-sat)
(pop)
(pop)
(push)
(assert (le x4 java.security.cert.CertPath))
(check-sat)
(pop)
(push)
(assert (le x4 java.util.AbstractCollection))
(check-sat)
(pop)
(push)
(assert (le x4 java.awt.geom.AffineTransform))
(check-sat)
(push)
(assert (= x9 java.lang.String))
(check-sat)
(pop)
(push)
(assert (not (= x9 java.lang.String)))
(check-sat)
(pop)
(pop)
(push)
(assert (le x4 org.dom4j.tree.ConcurrentReaderHashMap_currencysign_Entry))
(check-sat)
(push)
(assert (= x3 java.lang.reflect.Field))
(check-sat)
(pop)
(push)
(assert (not (= x3 java.lang.reflect.Field)))
(check-sat)
(pop)
(pop)
(push)
(assert (le x4 java.lang.Throwable))
(check-sat)
(pop)
(push)
(assert (le x4 org.pdfsam.console.business.dto.PageRotation))
(check-sat)
(pop)
(push)
(assert (= x4 java.lang.reflect.Method))
(check-sat)
(pop)
(push)
(assert (= x4 java.lang.reflect.Field))
(check-sat)
(pop)
(push)
(assert (= x4 java.util.Locale))
(check-sat)
(push)
(assert (le x1 com.lowagie.text.pdf.ByteBuffer))
(check-sat)
(pop)
(push)
(assert (not (le x1 com.lowagie.text.pdf.ByteBuffer)))
(check-sat)
(pop)
(pop)
(push)
(assert (le x4 java.util.Calendar))
(check-sat)
(pop)
(push)
(assert (= x4 java.lang.Boolean))
(check-sat)
(push)
(assert (= x0 java.lang.StringBuffer))
(check-sat)
(push)
(assert (= x7 java.lang.String))
(check-sat)
(pop)
(push)
(assert (not (= x7 java.lang.String)))
(check-sat)
(pop)
(pop)
(push)
(assert (not (= x0 java.lang.StringBuffer)))
(check-sat)
(pop)
(pop)
(push)
(assert (le x4 org.jaxen.expr.DefaultTruthExpr))
(check-sat)
(pop)
(push)
(assert (le x4 org.xml.sax.SAXException))
(check-sat)
(push)
(assert (le x5 com.lowagie.text.pdf.PdfObject))
(check-sat)
(pop)
(push)
(assert (not (le x5 com.lowagie.text.pdf.PdfObject)))
(check-sat)
(pop)
(pop)
(push)
(assert (= x4 java.lang.reflect.Constructor))
(check-sat)
(pop)
(push)
(assert (le x4 java.util.Vector))
(check-sat)
(pop)
(push)
(assert (not (le x4 org.jaxen.expr.DefaultAbsoluteLocationPath)))
(check-sat)
(push)
(assert (le x4 org.jaxen.expr.DefaultLocationPath))
(check-sat)
(push)
(assert (not (le x4 org.jaxen.expr.DefaultRelativeLocationPath)))
(check-sat)
(pop)
(pop)
(pop)
(push)
(assert (le x4 java.nio.channels.FileChannel_currencysign_MapMode))
(check-sat)
(pop)
(push)
(assert (= x4 java.lang.Double))
(check-sat)
(pop)
(push)
(assert (le x4 java.security.cert.Certificate))
(check-sat)
(pop)
(push)
(assert (le x4 org.pdfsam.console.business.dto.Bounds))
(check-sat)
(pop)
(push)
(assert (le x4 java.text.AttributedCharacterIterator_currencysign_Attribute))
(check-sat)
(pop)
(push)
(assert (not (le x4 com.lowagie.text.pdf.PdfDictionary)))
(check-sat)
(push)
(assert (not (le x4 com.lowagie.text.pdf.PdfBoolean)))
(check-sat)
(push)
(assert (le x4 com.lowagie.text.pdf.PdfObject))
(check-sat)
(push)
(assert (not (le x4 com.lowagie.text.pdf.PdfNull)))
(check-sat)
(push)
(assert (not (le x4 com.lowagie.text.pdf.PdfIndirectReference)))
(check-sat)
(push)
(assert (not (le x4 com.lowagie.text.pdf.PdfArray)))
(check-sat)
(push)
(assert (not (le x4 com.lowagie.text.pdf.PdfString)))
(check-sat)
(pop)
(pop)
(pop)
(pop)
(pop)
(pop)
(pop)
(push)
(assert (le x4 org.dom4j.QName))
(check-sat)
(push)
(assert (= x0 java.lang.StringBuffer))
(check-sat)
(pop)
(push)
(assert (not (= x0 java.lang.StringBuffer)))
(check-sat)
(pop)
(pop)
(push)
(assert (= x4 javax.security.auth.x500.X500Principal))
(check-sat)
(pop)
(push)
(assert (le x4 org.bouncycastle.math.ec.IntArray))
(check-sat)
(pop)
(push)
(assert (le x4 java.security.cert.X509CRLEntry))
(check-sat)
(pop)
(push)
(assert (le x4 org.dom4j.tree.AbstractElement))
(check-sat)
(pop)
(push)
(assert (le x4 org.bouncycastle.jce.provider.JCERSAPublicKey))
(check-sat)
(pop)
(push)
(assert (le x4 org.dom4j.tree.AbstractAttribute))
(check-sat)
(pop)
(push)
(assert (le x4 org.pdfsam.console.business.dto.commands.SplitParsedCommand))
(check-sat)
(pop)
(push)
(assert (le x4 java.security.Permission))
(check-sat)
(pop)
(push)
(assert (le x4 com.lowagie.text.pdf.PdfStream))
(check-sat)
(pop)
(push)
(assert (le x4 org.jaxen.expr.DefaultStep))
(check-sat)
(push)
(assert (not (le x4 org.jaxen.expr.DefaultNameStep)))
(check-sat)
(pop)
(pop)
(push)
(assert (le x4 com.lowagie.text.pdf.PdfContentByte))
(check-sat)
(pop)
(push)
(assert (not (= x4 java.lang.Boolean)))
(check-sat)
(push)
(assert (not (le x4 java.util.Calendar)))
(check-sat)
(push)
(assert (not (= x4 java.util.Locale)))
(check-sat)
(push)
(assert (not (le x4 org.bouncycastle.math.ec.SimpleBigDecimal)))
(check-sat)
(push)
(assert (not (le x4 java.awt.image.ColorModel)))
(check-sat)
(push)
(assert (not (le x4 org.pdfsam.console.business.dto.PageRotation)))
(check-sat)
(push)
(assert (not (le x4 java.lang.Throwable)))
(check-sat)
(push)
(assert (not (le x4 org.jaxen.expr.DefaultLocationPath)))
(check-sat)
(push)
(assert (not (le x4 org.jaxen.expr.DefaultXPathExpr)))
(check-sat)
(push)
(assert (not (le x4 org.jaxen.expr.DefaultPredicate)))
(check-sat)
(push)
(assert (not (le x4 jcmdline.dto.PdfFile)))
(check-sat)
(push)
(assert (not (le x4 org.dom4j.tree.ConcurrentReaderHashMap_currencysign_Entry)))
(check-sat)
(push)
(assert (not (= x4 java.net.URI)))
(check-sat)
(push)
(assert (not (le x4 java.awt.geom.AffineTransform)))
(check-sat)
(push)
(assert (not (= x4 java.lang.Class)))
(check-sat)
(push)
(assert (not (le x4 java.io.File)))
(check-sat)
(push)
(assert (not (le x4 java.util.AbstractCollection)))
(check-sat)
(push)
(assert (le x4 java.lang.Object))
(check-sat)
(push)
(assert (not (le x4 java.security.cert.CertPath)))
(check-sat)
(push)
(assert (not (= x4 java.util.regex.Matcher)))
(check-sat)
(push)
(assert (not (le x4 org.bouncycastle.math.ec.IntArray)))
(check-sat)
(push)
(assert (not (= x4 javax.security.auth.x500.X500Principal)))
(check-sat)
(push)
(assert (not (le x4 org.dom4j.QName)))
(check-sat)
(push)
(assert (not (le x4 java.text.AttributedCharacterIterator_currencysign_Attribute)))
(check-sat)
(push)
(assert (not (le x4 org.pdfsam.console.business.dto.Bounds)))
(check-sat)
(push)
(assert (not (le x4 org.pdfsam.console.business.dto.WorkDoneDataModel)))
(check-sat)
(push)
(assert (not (le x4 java.security.cert.Certificate)))
(check-sat)
(push)
(assert (not (le x4 java.nio.channels.FileChannel_currencysign_MapMode)))
(check-sat)
(push)
(assert (not (le x4 java.awt.Font)))
(check-sat)
(push)
(assert (not (= x4 java.util.regex.Pattern)))
(check-sat)
(push)
(assert (not (le x4 java.awt.Color)))
(check-sat)
(push)
(assert (not (le x4 com.lowagie.text.pdf.PdfObject)))
(check-sat)
(push)
(assert (not (le x4 org.pdfsam.console.business.dto.Transition)))
(check-sat)
(push)
(assert (not (le x4 org.jaxen.expr.DefaultStep)))
(check-sat)
(push)
(assert (not (= x4 java.lang.String)))
(check-sat)
(push)
(assert (not (le x4 java.lang.Package)))
(check-sat)
(push)
(assert (not (le x4 org.jaxen.BaseXPath)))
(check-sat)
(push)
(assert (not (le x4 com.lowagie.text.pdf.PdfContentByte)))
(check-sat)
(push)
(assert (not (le x4 java.util.AbstractMap)))
(check-sat)
(push)
(assert (not (le x4 java.security.Permission)))
(check-sat)
(push)
(assert (not (le x4 org.bouncycastle.jce.provider.JCERSAPublicKey)))
(check-sat)
(push)
(assert (not (le x4 org.apache.log4j.Priority)))
(check-sat)
(push)
(assert (not (le x4 java.awt.RenderingHints)))
(check-sat)
(push)
(assert (not (le x4 java.util.Date)))
(check-sat)
(push)
(assert (not (le x4 java.lang.Thread)))
(check-sat)
(push)
(assert (not (le x4 org.apache.commons.lang.time.StopWatch)))
(check-sat)
(push)
(assert (not (le x4 java.security.cert.X509CRLEntry)))
(check-sat)
(push)
(assert (not (le x4 org.bouncycastle.jce.provider.JCEECPublicKey)))
(check-sat)
(push)
(assert (not (le x4 com.lowagie.text.Rectangle)))
(check-sat)
(push)
(assert (not (= x4 java.lang.Character)))
(check-sat)
(push)
(assert (not (le x4 org.dom4j.xpath.DefaultXPath)))
(check-sat)
(push)
(assert (not (le x4 org.jaxen.expr.DefaultBinaryExpr)))
(check-sat)
(push)
(assert (not (le x4 org.bouncycastle.jce.provider.JCEECPrivateKey)))
(check-sat)
(push)
(assert (not (le x4 org.dom4j.tree.NamespaceStack)))
(check-sat)
(push)
(assert (not (le x4 org.jaxen.expr.DefaultLiteralExpr)))
(check-sat)
(push)
(assert (not (le x4 org.bouncycastle.jce.provider.JDKGOST3410PublicKey)))
(check-sat)
(push)
(assert (not (le x4 org.bouncycastle.jce.provider.PKIXNameConstraintValidator)))
(check-sat)
(push)
(assert (not (le x4 org.pdfsam.console.business.dto.PdfFile)))
(check-sat)
(push)
(assert (not (le x4 org.jaxen.expr.DefaultPathExpr)))
(check-sat)
(push)
(assert (not (le x4 org.pdfsam.console.business.dto.commands.AbstractParsedCommand)))
(check-sat)
(push)
(assert (not (le x4 org.jaxen.expr.DefaultFilterExpr)))
(check-sat)
(push)
(assert (not (le x4 org.bouncycastle.jce.provider.JDKDSAPublicKey)))
(check-sat)
(push)
(assert (not (le x4 com.lowagie.text.pdf.PdfCopy_currencysign_RefKey)))
(check-sat)
(push)
(assert (not (le x4 org.pdfsam.console.business.dto.PageLabel)))
(check-sat)
(push)
(assert (not (= x4 java.net.URL)))
(check-sat)
(pop)
(pop)
(pop)
(pop)
(pop)
(pop)
(pop)
(pop)
(pop)
(pop)
(pop)
(pop)
(pop)
(pop)
(pop)
(pop)
(pop)
(pop)
(pop)
(pop)
(pop)
(pop)
(pop)
(pop)
(pop)
(pop)
(pop)
(pop)
(pop)
(pop)
(pop)
(pop)
(pop)
(pop)
(pop)
(pop)
(pop)
(pop)
(pop)
(pop)
(pop)
(pop)
(pop)
(pop)
(pop)
(pop)
(pop)
(pop)
(pop)
(pop)
(pop)
(pop)
(pop)
(pop)
(pop)
(pop)
(pop)
(pop)
(pop)
(pop)
(pop)
(pop)
(pop)
(pop)
(pop)
(push)
(assert (le x4 com.lowagie.text.pdf.PdfBoolean))
(check-sat)
(pop)
(push)
(assert (= x4 java.lang.String))
(check-sat)
(pop)
(push)
(assert (= x4 java.lang.Long))
(check-sat)
(pop)
(push)
(assert (le x4 org.pdfsam.console.business.dto.commands.ConcatParsedCommand))
(check-sat)
(pop)
(push)
(assert (le x4 org.pdfsam.console.business.dto.PageLabel))
(check-sat)
(pop)
(push)
(assert (= x4 java.lang.Integer))
(check-sat)
(pop)
(push)
(assert (le x4 org.bouncycastle.jce.provider.JDKDSAPublicKey))
(check-sat)
(pop)
(push)
(assert (le x4 com.lowagie.text.pdf.PdfCopy_currencysign_RefKey))
(check-sat)
(pop)
(push)
(assert (le x4 org.jaxen.expr.DefaultFilterExpr))
(check-sat)
(pop)
(push)
(assert (le x4 org.pdfsam.console.business.dto.commands.SetViewerParsedCommand))
(check-sat)
(pop)
(push)
(assert (le x4 org.jaxen.expr.DefaultLiteralExpr))
(check-sat)
(pop)
(push)
(assert (le x4 org.bouncycastle.jce.provider.JDKGOST3410PublicKey))
(check-sat)
(pop)
(push)
(assert (le x4 org.bouncycastle.jce.provider.PKIXNameConstraintValidator))
(check-sat)
(pop)
(push)
(assert (le x4 org.bouncycastle.jce.provider.JCEECPrivateKey))
(check-sat)
(pop)
(push)
(assert (le x4 com.lowagie.text.pdf.PdfIndirectReference))
(check-sat)
(pop)
(push)
(assert (le x4 org.pdfsam.console.business.dto.commands.MixParsedCommand))
(check-sat)
(pop)
(push)
(assert (le x4 org.jaxen.expr.DefaultRelativeLocationPath))
(check-sat)
(pop)
(push)
(assert (le x4 java.io.ByteArrayOutputStream))
(check-sat)
(pop)
(push)
(assert (not (le x4 org.jaxen.expr.DefaultTruthExpr)))
(check-sat)
(push)
(assert (le x4 org.jaxen.expr.DefaultBinaryExpr))
(check-sat)
(pop)
(pop)
(push)
(assert (le x4 java.awt.Dimension))
(check-sat)
(pop)
(pop)
(push)
(assert (not (le x1 com.lowagie.text.pdf.ByteBuffer)))
(check-sat)
(pop)
(pop)
(push)
(assert (not (= x8 java.lang.String)))
(check-sat)
(pop)
(pop)
(push)
(assert (not (le x4 com.lowagie.text.pdf.PdfName)))
(check-sat)
(pop)
(pop)
(pop)
(push)
(assert (not (= x8 java.lang.String)))
(check-sat)
(pop)
(pop)
(pop)
(push)
(assert (not (= x15 java.lang.StringBuffer)))
(check-sat)
(pop)
(pop)
(pop)
(push)
(assert (not (= x9 java.lang.String)))
(check-sat)
(pop)
(pop)
(push)
(assert (not (= x0 java.lang.StringBuffer)))
(check-sat)
(pop)
(pop)
(push)
(assert (not (= x3 java.lang.reflect.Field)))
(check-sat)
(pop)
